Minimize
M1 + M2
Subject To
x0,10 + x0,11 + x0,12 + x0,13 + x0,14 + x0,15 + x0,16 = 1
x1,10 + x1,11 + x1,12 + x1,13 + x1,14 + x1,15 + x1,16 = 1
x2,9 + x2,10 + x2,11 + x2,12 + x2,13 + x2,14 + x2,15 + x2,16 = 1
x3,8 + x3,9 + x3,10 + x3,11 + x3,12 + x3,13 + x3,14 + x3,15 + x3,16 = 1
x4,8 + x4,9 + x4,10 + x4,11 + x4,12 + x4,13 + x4,14 + x4,15 + x4,16 = 1
x5,8 + x5,9 + x5,10 + x5,11 + x5,12 + x5,13 + x5,14 + x5,15 + x5,16 = 1
x6,6 + x6,7 + x6,8 + x6,9 + x6,10 + x6,11 + x6,12 + x6,13 + x6,14 + x6,15 + x6,16 = 1
x7,6 + x7,7 + x7,8 + x7,9 + x7,10 + x7,11 + x7,12 + x7,13 + x7,14 + x7,15 + x7,16 = 1
x8,6 + x8,7 + x8,8 + x8,9 + x8,10 + x8,11 + x8,12 + x8,13 + x8,14 + x8,15 + x8,16 = 1
x9,4 + x9,5 + x9,6 + x9,7 + x9,8 + x9,9 + x9,10 + x9,11 + x9,12 + x9,13 + x9,14 + x9,15 + x9,16 = 1
x10,3 + x10,4 + x10,5 + x10,6 + x10,7 + x10,8 + x10,9 + x10,10 + x10,11 + x10,12 + x10,13 + x10,14 + x10,15 + x10,16 = 1
x11,9 + x11,10 + x11,11 + x11,12 + x11,13 + x11,14 + x11,15 = 1
x12,8 + x12,9 + x12,10 + x12,11 + x12,12 + x12,13 + x12,14 = 1
x13,7 + x13,8 + x13,9 + x13,10 + x13,11 + x13,12 + x13,13 + x13,14 + x13,15 = 1
x14,7 + x14,8 + x14,9 + x14,10 + x14,11 + x14,12 + x14,13 = 1
x15,6 + x15,7 + x15,8 + x15,9 + x15,10 + x15,11 + x15,12 = 1
x16,5 + x16,6 + x16,7 + x16,8 + x16,9 + x16,10 + x16,11 = 1
x17,5 + x17,6 + x17,7 + x17,8 + x17,9 + x17,10 + x17,11 + x17,12 + x17,13 + x17,14 + x17,15 = 1
x18,4 + x18,5 + x18,6 + x18,7 + x18,8 + x18,9 + x18,10 = 1
x19,3 + x19,4 + x19,5 + x19,6 + x19,7 + x19,8 + x19,9 = 1
x20,2 + x20,3 + x20,4 + x20,5 + x20,6 + x20,7 + x20,8 = 1
x21,12 + x21,13 + x21,14 + x21,15 + x21,16 + x21,17 + x21,18 = 1
x22,12 + x22,13 + x22,14 + x22,15 + x22,16 + x22,17 + x22,18 = 1
x23,12 + x23,13 + x23,14 + x23,15 + x23,16 + x23,17 + x23,18 = 1
x24,12 + x24,13 + x24,14 + x24,15 + x24,16 + x24,17 + x24,18 = 1
x25,11 + x25,12 + x25,13 + x25,14 + x25,15 + x25,16 + x25,17 + x25,18 = 1
x26,11 + x26,12 + x26,13 + x26,14 + x26,15 + x26,16 + x26,17 + x26,18 = 1
x27,10 + x27,11 + x27,12 + x27,13 + x27,14 + x27,15 + x27,16 + x27,17 + x27,18 = 1
x28,10 + x28,11 + x28,12 + x28,13 + x28,14 + x28,15 + x28,16 + x28,17 + x28,18 = 1
x29,10 + x29,11 + x29,12 + x29,13 + x29,14 + x29,15 + x29,16 + x29,17 + x29,18 = 1
x30,10 + x30,11 + x30,12 + x30,13 + x30,14 + x30,15 + x30,16 + x30,17 + x30,18 = 1
x31,10 + x31,11 + x31,12 + x31,13 + x31,14 + x31,15 + x31,16 + x31,17 + x31,18 = 1
x32,10 + x32,11 + x32,12 + x32,13 + x32,14 + x32,15 + x32,16 + x32,17 + x32,18 = 1
x33,8 + x33,9 + x33,10 + x33,11 + x33,12 + x33,13 + x33,14 + x33,15 + x33,16 + x33,17 + x33,18 = 1
x34,8 + x34,9 + x34,10 + x34,11 + x34,12 + x34,13 + x34,14 + x34,15 + x34,16 + x34,17 + x34,18 = 1
x35,8 + x35,9 + x35,10 + x35,11 + x35,12 + x35,13 + x35,14 + x35,15 + x35,16 + x35,17 + x35,18 = 1
x36,8 + x36,9 + x36,10 + x36,11 + x36,12 + x36,13 + x36,14 + x36,15 + x36,16 + x36,17 + x36,18 = 1
x37,8 + x37,9 + x37,10 + x37,11 + x37,12 + x37,13 + x37,14 + x37,15 + x37,16 + x37,17 + x37,18 = 1
x38,8 + x38,9 + x38,10 + x38,11 + x38,12 + x38,13 + x38,14 + x38,15 + x38,16 + x38,17 + x38,18 = 1
x39,6 + x39,7 + x39,8 + x39,9 + x39,10 + x39,11 + x39,12 + x39,13 + x39,14 + x39,15 + x39,16 + x39,17 + x39,18 = 1
x40,6 + x40,7 + x40,8 + x40,9 + x40,10 + x40,11 + x40,12 + x40,13 + x40,14 + x40,15 + x40,16 + x40,17 + x40,18 = 1
x41,5 + x41,6 + x41,7 + x41,8 + x41,9 + x41,10 + x41,11 + x41,12 + x41,13 + x41,14 + x41,15 + x41,16 + x41,17 + x41,18 = 1
x42,5 + x42,6 + x42,7 + x42,8 + x42,9 + x42,10 + x42,11 + x42,12 + x42,13 + x42,14 + x42,15 + x42,16 + x42,17 + x42,18 = 1
x43,1 + x43,2 + x43,3 + x43,4 + x43,5 + x43,6 + x43,7 = 1
x20,2 + x43,2 - M2 <= 0
x19,3 + x20,3 + x43,3 - M2 <= 0
x18,4 + x19,4 + x20,4 + x43,4 - M2 <= 0
x9,4 + x9,3 + x10,4 + x10,3 - M1 <= 0
x16,5 + x17,5 + x18,5 + x19,5 + x20,5 + x41,5 + x42,5 + x43,5 - M2 <= 0
x9,5 + x9,4 + x10,5 + x10,4 - M1 <= 0
x15,6 + x16,6 + x17,6 + x18,6 + x19,6 + x20,6 + x39,6 + x40,6 + x41,6 + x42,6 + x43,6 - M2 <= 0
x6,6 + x6,5 + x7,6 + x7,5 + x8,6 + x8,5 + x9,6 + x9,5 + x10,6 + x10,5 - M1 <= 0
x13,7 + x14,7 + x15,7 + x16,7 + x17,7 + x18,7 + x19,7 + x20,7 + x39,7 + x40,7 + x41,7 + x42,7 + x43,7 - M2 <= 0
x6,7 + x6,6 + x7,7 + x7,6 + x8,7 + x8,6 + x9,7 + x9,6 + x10,7 + x10,6 - M1 <= 0
x12,8 + x13,8 + x14,8 + x15,8 + x16,8 + x17,8 + x18,8 + x19,8 + x20,8 + x33,8 + x34,8 + x35,8 + x36,8 + x37,8 + x38,8 + x39,8 + x40,8 + x41,8 + x42,8 - M2 <= 0
x3,8 + x3,7 + x4,8 + x4,7 + x5,8 + x5,7 + x6,8 + x6,7 + x7,8 + x7,7 + x8,8 + x8,7 + x9,8 + x9,7 + x10,8 + x10,7 - M1 <= 0
x11,9 + x12,9 + x13,9 + x14,9 + x15,9 + x16,9 + x17,9 + x18,9 + x19,9 + x33,9 + x34,9 + x35,9 + x36,9 + x37,9 + x38,9 + x39,9 + x40,9 + x41,9 + x42,9 - M2 <= 0
x2,9 + x2,8 + x3,9 + x3,8 + x4,9 + x4,8 + x5,9 + x5,8 + x6,9 + x6,8 + x7,9 + x7,8 + x8,9 + x8,8 + x9,9 + x9,8 + x10,9 + x10,8 - M1 <= 0
x11,10 + x12,10 + x13,10 + x14,10 + x15,10 + x16,10 + x17,10 + x18,10 + x27,10 + x28,10 + x29,10 + x30,10 + x31,10 + x32,10 + x33,10 + x34,10 + x35,10 + x36,10 + x37,10 + x38,10 + x39,10 + x40,10 + x41,10 + x42,10 - M2 <= 0
x0,10 + x0,9 + x1,10 + x1,9 + x2,10 + x2,9 + x3,10 + x3,9 + x4,10 + x4,9 + x5,10 + x5,9 + x6,10 + x6,9 + x7,10 + x7,9 + x8,10 + x8,9 + x9,10 + x9,9 + x10,10 + x10,9 - M1 <= 0
x11,11 + x12,11 + x13,11 + x14,11 + x15,11 + x16,11 + x17,11 + x25,11 + x26,11 + x27,11 + x28,11 + x29,11 + x30,11 + x31,11 + x32,11 + x33,11 + x34,11 + x35,11 + x36,11 + x37,11 + x38,11 + x39,11 + x40,11 + x41,11 + x42,11 - M2 <= 0
x0,11 + x0,10 + x1,11 + x1,10 + x2,11 + x2,10 + x3,11 + x3,10 + x4,11 + x4,10 + x5,11 + x5,10 + x6,11 + x6,10 + x7,11 + x7,10 + x8,11 + x8,10 + x9,11 + x9,10 + x10,11 + x10,10 - M1 <= 0
x11,12 + x12,12 + x13,12 + x14,12 + x15,12 + x17,12 + x21,12 + x22,12 + x23,12 + x24,12 + x25,12 + x26,12 + x27,12 + x28,12 + x29,12 + x30,12 + x31,12 + x32,12 + x33,12 + x34,12 + x35,12 + x36,12 + x37,12 + x38,12 + x39,12 + x40,12 + x41,12 + x42,12 - M2 <= 0
x0,12 + x0,11 + x1,12 + x1,11 + x2,12 + x2,11 + x3,12 + x3,11 + x4,12 + x4,11 + x5,12 + x5,11 + x6,12 + x6,11 + x7,12 + x7,11 + x8,12 + x8,11 + x9,12 + x9,11 + x10,12 + x10,11 - M1 <= 0
x11,13 + x12,13 + x13,13 + x14,13 + x17,13 + x21,13 + x22,13 + x23,13 + x24,13 + x25,13 + x26,13 + x27,13 + x28,13 + x29,13 + x30,13 + x31,13 + x32,13 + x33,13 + x34,13 + x35,13 + x36,13 + x37,13 + x38,13 + x39,13 + x40,13 + x41,13 + x42,13 - M2 <= 0
x0,13 + x0,12 + x1,13 + x1,12 + x2,13 + x2,12 + x3,13 + x3,12 + x4,13 + x4,12 + x5,13 + x5,12 + x6,13 + x6,12 + x7,13 + x7,12 + x8,13 + x8,12 + x9,13 + x9,12 + x10,13 + x10,12 - M1 <= 0
x11,14 + x12,14 + x13,14 + x17,14 + x21,14 + x22,14 + x23,14 + x24,14 + x25,14 + x26,14 + x27,14 + x28,14 + x29,14 + x30,14 + x31,14 + x32,14 + x33,14 + x34,14 + x35,14 + x36,14 + x37,14 + x38,14 + x39,14 + x40,14 + x41,14 + x42,14 - M2 <= 0
x0,14 + x0,13 + x1,14 + x1,13 + x2,14 + x2,13 + x3,14 + x3,13 + x4,14 + x4,13 + x5,14 + x5,13 + x6,14 + x6,13 + x7,14 + x7,13 + x8,14 + x8,13 + x9,14 + x9,13 + x10,14 + x10,13 - M1 <= 0
x11,15 + x13,15 + x17,15 + x21,15 + x22,15 + x23,15 + x24,15 + x25,15 + x26,15 + x27,15 + x28,15 + x29,15 + x30,15 + x31,15 + x32,15 + x33,15 + x34,15 + x35,15 + x36,15 + x37,15 + x38,15 + x39,15 + x40,15 + x41,15 + x42,15 - M2 <= 0
x0,15 + x0,14 + x1,15 + x1,14 + x2,15 + x2,14 + x3,15 + x3,14 + x4,15 + x4,14 + x5,15 + x5,14 + x6,15 + x6,14 + x7,15 + x7,14 + x8,15 + x8,14 + x9,15 + x9,14 + x10,15 + x10,14 - M1 <= 0
x21,16 + x22,16 + x23,16 + x24,16 + x25,16 + x26,16 + x27,16 + x28,16 + x29,16 + x30,16 + x31,16 + x32,16 + x33,16 + x34,16 + x35,16 + x36,16 + x37,16 + x38,16 + x39,16 + x40,16 + x41,16 + x42,16 - M2 <= 0
x0,16 + x0,15 + x1,16 + x1,15 + x2,16 + x2,15 + x3,16 + x3,15 + x4,16 + x4,15 + x5,16 + x5,15 + x6,16 + x6,15 + x7,16 + x7,15 + x8,16 + x8,15 + x9,16 + x9,15 + x10,16 + x10,15 - M1 <= 0
x21,17 + x22,17 + x23,17 + x24,17 + x25,17 + x26,17 + x27,17 + x28,17 + x29,17 + x30,17 + x31,17 + x32,17 + x33,17 + x34,17 + x35,17 + x36,17 + x37,17 + x38,17 + x39,17 + x40,17 + x41,17 + x42,17 - M2 <= 0
x0,17 + x0,16 + x1,17 + x1,16 + x2,17 + x2,16 + x3,17 + x3,16 + x4,17 + x4,16 + x5,17 + x5,16 + x6,17 + x6,16 + x7,17 + x7,16 + x8,17 + x8,16 + x9,17 + x9,16 + x10,17 + x10,16 - M1 <= 0
x21,18 + x22,18 + x23,18 + x24,18 + x25,18 + x26,18 + x27,18 + x28,18 + x29,18 + x30,18 + x31,18 + x32,18 + x33,18 + x34,18 + x35,18 + x36,18 + x37,18 + x38,18 + x39,18 + x40,18 + x41,18 + x42,18 - M2 <= 0
10 x0,10 + 11 x0,11 + 12 x0,12 + 13 x0,13 + 14 x0,14 + 15 x0,15 + 16 x0,16 - 12 x21,12 - 13 x21,13 - 14 x21,14 - 15 x21,15 - 16 x21,16 - 17 x21,17 - 18 x21,18 <= -2
10 x0,10 + 11 x0,11 + 12 x0,12 + 13 x0,13 + 14 x0,14 + 15 x0,15 + 16 x0,16 - 12 x22,12 - 13 x22,13 - 14 x22,14 - 15 x22,15 - 16 x22,16 - 17 x22,17 - 18 x22,18 <= -2
10 x1,10 + 11 x1,11 + 12 x1,12 + 13 x1,13 + 14 x1,14 + 15 x1,15 + 16 x1,16 - 12 x23,12 - 13 x23,13 - 14 x23,14 - 15 x23,15 - 16 x23,16 - 17 x23,17 - 18 x23,18 <= -2
10 x1,10 + 11 x1,11 + 12 x1,12 + 13 x1,13 + 14 x1,14 + 15 x1,15 + 16 x1,16 - 12 x24,12 - 13 x24,13 - 14 x24,14 - 15 x24,15 - 16 x24,16 - 17 x24,17 - 18 x24,18 <= -2
9 x2,9 + 10 x2,10 + 11 x2,11 + 12 x2,12 + 13 x2,13 + 14 x2,14 + 15 x2,15 + 16 x2,16 - 11 x25,11 - 12 x25,12 - 13 x25,13 - 14 x25,14 - 15 x25,15 - 16 x25,16 - 17 x25,17 - 18 x25,18 <= -2
9 x2,9 + 10 x2,10 + 11 x2,11 + 12 x2,12 + 13 x2,13 + 14 x2,14 + 15 x2,15 + 16 x2,16 - 11 x26,11 - 12 x26,12 - 13 x26,13 - 14 x26,14 - 15 x26,15 - 16 x26,16 - 17 x26,17 - 18 x26,18 <= -2
8 x3,8 + 9 x3,9 + 10 x3,10 + 11 x3,11 + 12 x3,12 + 13 x3,13 + 14 x3,14 + 15 x3,15 + 16 x3,16 - 10 x27,10 - 11 x27,11 - 12 x27,12 - 13 x27,13 - 14 x27,14 - 15 x27,15 - 16 x27,16 - 17 x27,17 - 18 x27,18 <= -2
8 x3,8 + 9 x3,9 + 10 x3,10 + 11 x3,11 + 12 x3,12 + 13 x3,13 + 14 x3,14 + 15 x3,15 + 16 x3,16 - 10 x28,10 - 11 x28,11 - 12 x28,12 - 13 x28,13 - 14 x28,14 - 15 x28,15 - 16 x28,16 - 17 x28,17 - 18 x28,18 <= -2
8 x4,8 + 9 x4,9 + 10 x4,10 + 11 x4,11 + 12 x4,12 + 13 x4,13 + 14 x4,14 + 15 x4,15 + 16 x4,16 - 10 x29,10 - 11 x29,11 - 12 x29,12 - 13 x29,13 - 14 x29,14 - 15 x29,15 - 16 x29,16 - 17 x29,17 - 18 x29,18 <= -2
8 x4,8 + 9 x4,9 + 10 x4,10 + 11 x4,11 + 12 x4,12 + 13 x4,13 + 14 x4,14 + 15 x4,15 + 16 x4,16 - 10 x30,10 - 11 x30,11 - 12 x30,12 - 13 x30,13 - 14 x30,14 - 15 x30,15 - 16 x30,16 - 17 x30,17 - 18 x30,18 <= -2
8 x5,8 + 9 x5,9 + 10 x5,10 + 11 x5,11 + 12 x5,12 + 13 x5,13 + 14 x5,14 + 15 x5,15 + 16 x5,16 - 10 x31,10 - 11 x31,11 - 12 x31,12 - 13 x31,13 - 14 x31,14 - 15 x31,15 - 16 x31,16 - 17 x31,17 - 18 x31,18 <= -2
8 x5,8 + 9 x5,9 + 10 x5,10 + 11 x5,11 + 12 x5,12 + 13 x5,13 + 14 x5,14 + 15 x5,15 + 16 x5,16 - 10 x32,10 - 11 x32,11 - 12 x32,12 - 13 x32,13 - 14 x32,14 - 15 x32,15 - 16 x32,16 - 17 x32,17 - 18 x32,18 <= -2
6 x6,6 + 7 x6,7 + 8 x6,8 + 9 x6,9 + 10 x6,10 + 11 x6,11 + 12 x6,12 + 13 x6,13 + 14 x6,14 + 15 x6,15 + 16 x6,16 - 8 x33,8 - 9 x33,9 - 10 x33,10 - 11 x33,11 - 12 x33,12 - 13 x33,13 - 14 x33,14 - 15 x33,15 - 16 x33,16 - 17 x33,17 - 18 x33,18 <= -2
6 x6,6 + 7 x6,7 + 8 x6,8 + 9 x6,9 + 10 x6,10 + 11 x6,11 + 12 x6,12 + 13 x6,13 + 14 x6,14 + 15 x6,15 + 16 x6,16 - 8 x34,8 - 9 x34,9 - 10 x34,10 - 11 x34,11 - 12 x34,12 - 13 x34,13 - 14 x34,14 - 15 x34,15 - 16 x34,16 - 17 x34,17 - 18 x34,18 <= -2
6 x7,6 + 7 x7,7 + 8 x7,8 + 9 x7,9 + 10 x7,10 + 11 x7,11 + 12 x7,12 + 13 x7,13 + 14 x7,14 + 15 x7,15 + 16 x7,16 - 8 x35,8 - 9 x35,9 - 10 x35,10 - 11 x35,11 - 12 x35,12 - 13 x35,13 - 14 x35,14 - 15 x35,15 - 16 x35,16 - 17 x35,17 - 18 x35,18 <= -2
6 x7,6 + 7 x7,7 + 8 x7,8 + 9 x7,9 + 10 x7,10 + 11 x7,11 + 12 x7,12 + 13 x7,13 + 14 x7,14 + 15 x7,15 + 16 x7,16 - 8 x36,8 - 9 x36,9 - 10 x36,10 - 11 x36,11 - 12 x36,12 - 13 x36,13 - 14 x36,14 - 15 x36,15 - 16 x36,16 - 17 x36,17 - 18 x36,18 <= -2
6 x8,6 + 7 x8,7 + 8 x8,8 + 9 x8,9 + 10 x8,10 + 11 x8,11 + 12 x8,12 + 13 x8,13 + 14 x8,14 + 15 x8,15 + 16 x8,16 - 8 x37,8 - 9 x37,9 - 10 x37,10 - 11 x37,11 - 12 x37,12 - 13 x37,13 - 14 x37,14 - 15 x37,15 - 16 x37,16 - 17 x37,17 - 18 x37,18 <= -2
6 x8,6 + 7 x8,7 + 8 x8,8 + 9 x8,9 + 10 x8,10 + 11 x8,11 + 12 x8,12 + 13 x8,13 + 14 x8,14 + 15 x8,15 + 16 x8,16 - 8 x38,8 - 9 x38,9 - 10 x38,10 - 11 x38,11 - 12 x38,12 - 13 x38,13 - 14 x38,14 - 15 x38,15 - 16 x38,16 - 17 x38,17 - 18 x38,18 <= -2
4 x9,4 + 5 x9,5 + 6 x9,6 + 7 x9,7 + 8 x9,8 + 9 x9,9 + 10 x9,10 + 11 x9,11 + 12 x9,12 + 13 x9,13 + 14 x9,14 + 15 x9,15 + 16 x9,16 - 6 x39,6 - 7 x39,7 - 8 x39,8 - 9 x39,9 - 10 x39,10 - 11 x39,11 - 12 x39,12 - 13 x39,13 - 14 x39,14 - 15 x39,15 - 16 x39,16 - 17 x39,17 - 18 x39,18 <= -2
4 x9,4 + 5 x9,5 + 6 x9,6 + 7 x9,7 + 8 x9,8 + 9 x9,9 + 10 x9,10 + 11 x9,11 + 12 x9,12 + 13 x9,13 + 14 x9,14 + 15 x9,15 + 16 x9,16 - 6 x40,6 - 7 x40,7 - 8 x40,8 - 9 x40,9 - 10 x40,10 - 11 x40,11 - 12 x40,12 - 13 x40,13 - 14 x40,14 - 15 x40,15 - 16 x40,16 - 17 x40,17 - 18 x40,18 <= -2
3 x10,3 + 4 x10,4 + 5 x10,5 + 6 x10,6 + 7 x10,7 + 8 x10,8 + 9 x10,9 + 10 x10,10 + 11 x10,11 + 12 x10,12 + 13 x10,13 + 14 x10,14 + 15 x10,15 + 16 x10,16 - 5 x41,5 - 6 x41,6 - 7 x41,7 - 8 x41,8 - 9 x41,9 - 10 x41,10 - 11 x41,11 - 12 x41,12 - 13 x41,13 - 14 x41,14 - 15 x41,15 - 16 x41,16 - 17 x41,17 - 18 x41,18 <= -2
3 x10,3 + 4 x10,4 + 5 x10,5 + 6 x10,6 + 7 x10,7 + 8 x10,8 + 9 x10,9 + 10 x10,10 + 11 x10,11 + 12 x10,12 + 13 x10,13 + 14 x10,14 + 15 x10,15 + 16 x10,16 - 5 x42,5 - 6 x42,6 - 7 x42,7 - 8 x42,8 - 9 x42,9 - 10 x42,10 - 11 x42,11 - 12 x42,12 - 13 x42,13 - 14 x42,14 - 15 x42,15 - 16 x42,16 - 17 x42,17 - 18 x42,18 <= -2
9 x11,9 + 10 x11,10 + 11 x11,11 + 12 x11,12 + 13 x11,13 + 14 x11,14 + 15 x11,15 - 10 x0,10 - 11 x0,11 - 12 x0,12 - 13 x0,13 - 14 x0,14 - 15 x0,15 - 16 x0,16 <= -1
9 x11,9 + 10 x11,10 + 11 x11,11 + 12 x11,12 + 13 x11,13 + 14 x11,14 + 15 x11,15 - 10 x1,10 - 11 x1,11 - 12 x1,12 - 13 x1,13 - 14 x1,14 - 15 x1,15 - 16 x1,16 <= -1
8 x12,8 + 9 x12,9 + 10 x12,10 + 11 x12,11 + 12 x12,12 + 13 x12,13 + 14 x12,14 - 9 x11,9 - 10 x11,10 - 11 x11,11 - 12 x11,12 - 13 x11,13 - 14 x11,14 - 15 x11,15 <= -1
8 x12,8 + 9 x12,9 + 10 x12,10 + 11 x12,11 + 12 x12,12 + 13 x12,13 + 14 x12,14 - 9 x2,9 - 10 x2,10 - 11 x2,11 - 12 x2,12 - 13 x2,13 - 14 x2,14 - 15 x2,15 - 16 x2,16 <= -1
7 x13,7 + 8 x13,8 + 9 x13,9 + 10 x13,10 + 11 x13,11 + 12 x13,12 + 13 x13,13 + 14 x13,14 + 15 x13,15 - 8 x3,8 - 9 x3,9 - 10 x3,10 - 11 x3,11 - 12 x3,12 - 13 x3,13 - 14 x3,14 - 15 x3,15 - 16 x3,16 <= -1
7 x13,7 + 8 x13,8 + 9 x13,9 + 10 x13,10 + 11 x13,11 + 12 x13,12 + 13 x13,13 + 14 x13,14 + 15 x13,15 - 8 x4,8 - 9 x4,9 - 10 x4,10 - 11 x4,11 - 12 x4,12 - 13 x4,13 - 14 x4,14 - 15 x4,15 - 16 x4,16 <= -1
7 x14,7 + 8 x14,8 + 9 x14,9 + 10 x14,10 + 11 x14,11 + 12 x14,12 + 13 x14,13 - 8 x5,8 - 9 x5,9 - 10 x5,10 - 11 x5,11 - 12 x5,12 - 13 x5,13 - 14 x5,14 - 15 x5,15 - 16 x5,16 <= -1
7 x14,7 + 8 x14,8 + 9 x14,9 + 10 x14,10 + 11 x14,11 + 12 x14,12 + 13 x14,13 - 8 x12,8 - 9 x12,9 - 10 x12,10 - 11 x12,11 - 12 x12,12 - 13 x12,13 - 14 x12,14 <= -1
6 x15,6 + 7 x15,7 + 8 x15,8 + 9 x15,9 + 10 x15,10 + 11 x15,11 + 12 x15,12 - 7 x13,7 - 8 x13,8 - 9 x13,9 - 10 x13,10 - 11 x13,11 - 12 x13,12 - 13 x13,13 - 14 x13,14 - 15 x13,15 <= -1
6 x15,6 + 7 x15,7 + 8 x15,8 + 9 x15,9 + 10 x15,10 + 11 x15,11 + 12 x15,12 - 7 x14,7 - 8 x14,8 - 9 x14,9 - 10 x14,10 - 11 x14,11 - 12 x14,12 - 13 x14,13 <= -1
5 x16,5 + 6 x16,6 + 7 x16,7 + 8 x16,8 + 9 x16,9 + 10 x16,10 + 11 x16,11 - 6 x15,6 - 7 x15,7 - 8 x15,8 - 9 x15,9 - 10 x15,10 - 11 x15,11 - 12 x15,12 <= -1
5 x16,5 + 6 x16,6 + 7 x16,7 + 8 x16,8 + 9 x16,9 + 10 x16,10 + 11 x16,11 - 6 x8,6 - 7 x8,7 - 8 x8,8 - 9 x8,9 - 10 x8,10 - 11 x8,11 - 12 x8,12 - 13 x8,13 - 14 x8,14 - 15 x8,15 - 16 x8,16 <= -1
5 x17,5 + 6 x17,6 + 7 x17,7 + 8 x17,8 + 9 x17,9 + 10 x17,10 + 11 x17,11 + 12 x17,12 + 13 x17,13 + 14 x17,14 + 15 x17,15 - 6 x6,6 - 7 x6,7 - 8 x6,8 - 9 x6,9 - 10 x6,10 - 11 x6,11 - 12 x6,12 - 13 x6,13 - 14 x6,14 - 15 x6,15 - 16 x6,16 <= -1
5 x17,5 + 6 x17,6 + 7 x17,7 + 8 x17,8 + 9 x17,9 + 10 x17,10 + 11 x17,11 + 12 x17,12 + 13 x17,13 + 14 x17,14 + 15 x17,15 - 6 x7,6 - 7 x7,7 - 8 x7,8 - 9 x7,9 - 10 x7,10 - 11 x7,11 - 12 x7,12 - 13 x7,13 - 14 x7,14 - 15 x7,15 - 16 x7,16 <= -1
4 x18,4 + 5 x18,5 + 6 x18,6 + 7 x18,7 + 8 x18,8 + 9 x18,9 + 10 x18,10 - 5 x17,5 - 6 x17,6 - 7 x17,7 - 8 x17,8 - 9 x17,9 - 10 x17,10 - 11 x17,11 - 12 x17,12 - 13 x17,13 - 14 x17,14 - 15 x17,15 <= -1
4 x18,4 + 5 x18,5 + 6 x18,6 + 7 x18,7 + 8 x18,8 + 9 x18,9 + 10 x18,10 - 5 x16,5 - 6 x16,6 - 7 x16,7 - 8 x16,8 - 9 x16,9 - 10 x16,10 - 11 x16,11 <= -1
3 x19,3 + 4 x19,4 + 5 x19,5 + 6 x19,6 + 7 x19,7 + 8 x19,8 + 9 x19,9 - 4 x18,4 - 5 x18,5 - 6 x18,6 - 7 x18,7 - 8 x18,8 - 9 x18,9 - 10 x18,10 <= -1
3 x19,3 + 4 x19,4 + 5 x19,5 + 6 x19,6 + 7 x19,7 + 8 x19,8 + 9 x19,9 - 4 x9,4 - 5 x9,5 - 6 x9,6 - 7 x9,7 - 8 x9,8 - 9 x9,9 - 10 x9,10 - 11 x9,11 - 12 x9,12 - 13 x9,13 - 14 x9,14 - 15 x9,15 - 16 x9,16 <= -1
2 x20,2 + 3 x20,3 + 4 x20,4 + 5 x20,5 + 6 x20,6 + 7 x20,7 + 8 x20,8 - 3 x10,3 - 4 x10,4 - 5 x10,5 - 6 x10,6 - 7 x10,7 - 8 x10,8 - 9 x10,9 - 10 x10,10 - 11 x10,11 - 12 x10,12 - 13 x10,13 - 14 x10,14 - 15 x10,15 - 16 x10,16 <= -1
2 x20,2 + 3 x20,3 + 4 x20,4 + 5 x20,5 + 6 x20,6 + 7 x20,7 + 8 x20,8 - 3 x19,3 - 4 x19,4 - 5 x19,5 - 6 x19,6 - 7 x19,7 - 8 x19,8 - 9 x19,9 <= -1
1 x43,1 + 2 x43,2 + 3 x43,3 + 4 x43,4 + 5 x43,5 + 6 x43,6 + 7 x43,7 - 2 x20,2 - 3 x20,3 - 4 x20,4 - 5 x20,5 - 6 x20,6 - 7 x20,7 - 8 x20,8 <= -1
Bounds
0 <= x0,10 <= 1
0 <= x0,11 <= 1
0 <= x0,12 <= 1
0 <= x0,13 <= 1
0 <= x0,14 <= 1
0 <= x0,15 <= 1
0 <= x0,16 <= 1
0 <= x1,10 <= 1
0 <= x1,11 <= 1
0 <= x1,12 <= 1
0 <= x1,13 <= 1
0 <= x1,14 <= 1
0 <= x1,15 <= 1
0 <= x1,16 <= 1
0 <= x2,9 <= 1
0 <= x2,10 <= 1
0 <= x2,11 <= 1
0 <= x2,12 <= 1
0 <= x2,13 <= 1
0 <= x2,14 <= 1
0 <= x2,15 <= 1
0 <= x2,16 <= 1
0 <= x3,8 <= 1
0 <= x3,9 <= 1
0 <= x3,10 <= 1
0 <= x3,11 <= 1
0 <= x3,12 <= 1
0 <= x3,13 <= 1
0 <= x3,14 <= 1
0 <= x3,15 <= 1
0 <= x3,16 <= 1
0 <= x4,8 <= 1
0 <= x4,9 <= 1
0 <= x4,10 <= 1
0 <= x4,11 <= 1
0 <= x4,12 <= 1
0 <= x4,13 <= 1
0 <= x4,14 <= 1
0 <= x4,15 <= 1
0 <= x4,16 <= 1
0 <= x5,8 <= 1
0 <= x5,9 <= 1
0 <= x5,10 <= 1
0 <= x5,11 <= 1
0 <= x5,12 <= 1
0 <= x5,13 <= 1
0 <= x5,14 <= 1
0 <= x5,15 <= 1
0 <= x5,16 <= 1
0 <= x6,6 <= 1
0 <= x6,7 <= 1
0 <= x6,8 <= 1
0 <= x6,9 <= 1
0 <= x6,10 <= 1
0 <= x6,11 <= 1
0 <= x6,12 <= 1
0 <= x6,13 <= 1
0 <= x6,14 <= 1
0 <= x6,15 <= 1
0 <= x6,16 <= 1
0 <= x7,6 <= 1
0 <= x7,7 <= 1
0 <= x7,8 <= 1
0 <= x7,9 <= 1
0 <= x7,10 <= 1
0 <= x7,11 <= 1
0 <= x7,12 <= 1
0 <= x7,13 <= 1
0 <= x7,14 <= 1
0 <= x7,15 <= 1
0 <= x7,16 <= 1
0 <= x8,6 <= 1
0 <= x8,7 <= 1
0 <= x8,8 <= 1
0 <= x8,9 <= 1
0 <= x8,10 <= 1
0 <= x8,11 <= 1
0 <= x8,12 <= 1
0 <= x8,13 <= 1
0 <= x8,14 <= 1
0 <= x8,15 <= 1
0 <= x8,16 <= 1
0 <= x9,4 <= 1
0 <= x9,5 <= 1
0 <= x9,6 <= 1
0 <= x9,7 <= 1
0 <= x9,8 <= 1
0 <= x9,9 <= 1
0 <= x9,10 <= 1
0 <= x9,11 <= 1
0 <= x9,12 <= 1
0 <= x9,13 <= 1
0 <= x9,14 <= 1
0 <= x9,15 <= 1
0 <= x9,16 <= 1
0 <= x10,3 <= 1
0 <= x10,4 <= 1
0 <= x10,5 <= 1
0 <= x10,6 <= 1
0 <= x10,7 <= 1
0 <= x10,8 <= 1
0 <= x10,9 <= 1
0 <= x10,10 <= 1
0 <= x10,11 <= 1
0 <= x10,12 <= 1
0 <= x10,13 <= 1
0 <= x10,14 <= 1
0 <= x10,15 <= 1
0 <= x10,16 <= 1
0 <= x11,9 <= 1
0 <= x11,10 <= 1
0 <= x11,11 <= 1
0 <= x11,12 <= 1
0 <= x11,13 <= 1
0 <= x11,14 <= 1
0 <= x11,15 <= 1
0 <= x12,8 <= 1
0 <= x12,9 <= 1
0 <= x12,10 <= 1
0 <= x12,11 <= 1
0 <= x12,12 <= 1
0 <= x12,13 <= 1
0 <= x12,14 <= 1
0 <= x13,7 <= 1
0 <= x13,8 <= 1
0 <= x13,9 <= 1
0 <= x13,10 <= 1
0 <= x13,11 <= 1
0 <= x13,12 <= 1
0 <= x13,13 <= 1
0 <= x13,14 <= 1
0 <= x13,15 <= 1
0 <= x14,7 <= 1
0 <= x14,8 <= 1
0 <= x14,9 <= 1
0 <= x14,10 <= 1
0 <= x14,11 <= 1
0 <= x14,12 <= 1
0 <= x14,13 <= 1
0 <= x15,6 <= 1
0 <= x15,7 <= 1
0 <= x15,8 <= 1
0 <= x15,9 <= 1
0 <= x15,10 <= 1
0 <= x15,11 <= 1
0 <= x15,12 <= 1
0 <= x16,5 <= 1
0 <= x16,6 <= 1
0 <= x16,7 <= 1
0 <= x16,8 <= 1
0 <= x16,9 <= 1
0 <= x16,10 <= 1
0 <= x16,11 <= 1
0 <= x17,5 <= 1
0 <= x17,6 <= 1
0 <= x17,7 <= 1
0 <= x17,8 <= 1
0 <= x17,9 <= 1
0 <= x17,10 <= 1
0 <= x17,11 <= 1
0 <= x17,12 <= 1
0 <= x17,13 <= 1
0 <= x17,14 <= 1
0 <= x17,15 <= 1
0 <= x18,4 <= 1
0 <= x18,5 <= 1
0 <= x18,6 <= 1
0 <= x18,7 <= 1
0 <= x18,8 <= 1
0 <= x18,9 <= 1
0 <= x18,10 <= 1
0 <= x19,3 <= 1
0 <= x19,4 <= 1
0 <= x19,5 <= 1
0 <= x19,6 <= 1
0 <= x19,7 <= 1
0 <= x19,8 <= 1
0 <= x19,9 <= 1
0 <= x20,2 <= 1
0 <= x20,3 <= 1
0 <= x20,4 <= 1
0 <= x20,5 <= 1
0 <= x20,6 <= 1
0 <= x20,7 <= 1
0 <= x20,8 <= 1
0 <= x21,12 <= 1
0 <= x21,13 <= 1
0 <= x21,14 <= 1
0 <= x21,15 <= 1
0 <= x21,16 <= 1
0 <= x21,17 <= 1
0 <= x21,18 <= 1
0 <= x22,12 <= 1
0 <= x22,13 <= 1
0 <= x22,14 <= 1
0 <= x22,15 <= 1
0 <= x22,16 <= 1
0 <= x22,17 <= 1
0 <= x22,18 <= 1
0 <= x23,12 <= 1
0 <= x23,13 <= 1
0 <= x23,14 <= 1
0 <= x23,15 <= 1
0 <= x23,16 <= 1
0 <= x23,17 <= 1
0 <= x23,18 <= 1
0 <= x24,12 <= 1
0 <= x24,13 <= 1
0 <= x24,14 <= 1
0 <= x24,15 <= 1
0 <= x24,16 <= 1
0 <= x24,17 <= 1
0 <= x24,18 <= 1
0 <= x25,11 <= 1
0 <= x25,12 <= 1
0 <= x25,13 <= 1
0 <= x25,14 <= 1
0 <= x25,15 <= 1
0 <= x25,16 <= 1
0 <= x25,17 <= 1
0 <= x25,18 <= 1
0 <= x26,11 <= 1
0 <= x26,12 <= 1
0 <= x26,13 <= 1
0 <= x26,14 <= 1
0 <= x26,15 <= 1
0 <= x26,16 <= 1
0 <= x26,17 <= 1
0 <= x26,18 <= 1
0 <= x27,10 <= 1
0 <= x27,11 <= 1
0 <= x27,12 <= 1
0 <= x27,13 <= 1
0 <= x27,14 <= 1
0 <= x27,15 <= 1
0 <= x27,16 <= 1
0 <= x27,17 <= 1
0 <= x27,18 <= 1
0 <= x28,10 <= 1
0 <= x28,11 <= 1
0 <= x28,12 <= 1
0 <= x28,13 <= 1
0 <= x28,14 <= 1
0 <= x28,15 <= 1
0 <= x28,16 <= 1
0 <= x28,17 <= 1
0 <= x28,18 <= 1
0 <= x29,10 <= 1
0 <= x29,11 <= 1
0 <= x29,12 <= 1
0 <= x29,13 <= 1
0 <= x29,14 <= 1
0 <= x29,15 <= 1
0 <= x29,16 <= 1
0 <= x29,17 <= 1
0 <= x29,18 <= 1
0 <= x30,10 <= 1
0 <= x30,11 <= 1
0 <= x30,12 <= 1
0 <= x30,13 <= 1
0 <= x30,14 <= 1
0 <= x30,15 <= 1
0 <= x30,16 <= 1
0 <= x30,17 <= 1
0 <= x30,18 <= 1
0 <= x31,10 <= 1
0 <= x31,11 <= 1
0 <= x31,12 <= 1
0 <= x31,13 <= 1
0 <= x31,14 <= 1
0 <= x31,15 <= 1
0 <= x31,16 <= 1
0 <= x31,17 <= 1
0 <= x31,18 <= 1
0 <= x32,10 <= 1
0 <= x32,11 <= 1
0 <= x32,12 <= 1
0 <= x32,13 <= 1
0 <= x32,14 <= 1
0 <= x32,15 <= 1
0 <= x32,16 <= 1
0 <= x32,17 <= 1
0 <= x32,18 <= 1
0 <= x33,8 <= 1
0 <= x33,9 <= 1
0 <= x33,10 <= 1
0 <= x33,11 <= 1
0 <= x33,12 <= 1
0 <= x33,13 <= 1
0 <= x33,14 <= 1
0 <= x33,15 <= 1
0 <= x33,16 <= 1
0 <= x33,17 <= 1
0 <= x33,18 <= 1
0 <= x34,8 <= 1
0 <= x34,9 <= 1
0 <= x34,10 <= 1
0 <= x34,11 <= 1
0 <= x34,12 <= 1
0 <= x34,13 <= 1
0 <= x34,14 <= 1
0 <= x34,15 <= 1
0 <= x34,16 <= 1
0 <= x34,17 <= 1
0 <= x34,18 <= 1
0 <= x35,8 <= 1
0 <= x35,9 <= 1
0 <= x35,10 <= 1
0 <= x35,11 <= 1
0 <= x35,12 <= 1
0 <= x35,13 <= 1
0 <= x35,14 <= 1
0 <= x35,15 <= 1
0 <= x35,16 <= 1
0 <= x35,17 <= 1
0 <= x35,18 <= 1
0 <= x36,8 <= 1
0 <= x36,9 <= 1
0 <= x36,10 <= 1
0 <= x36,11 <= 1
0 <= x36,12 <= 1
0 <= x36,13 <= 1
0 <= x36,14 <= 1
0 <= x36,15 <= 1
0 <= x36,16 <= 1
0 <= x36,17 <= 1
0 <= x36,18 <= 1
0 <= x37,8 <= 1
0 <= x37,9 <= 1
0 <= x37,10 <= 1
0 <= x37,11 <= 1
0 <= x37,12 <= 1
0 <= x37,13 <= 1
0 <= x37,14 <= 1
0 <= x37,15 <= 1
0 <= x37,16 <= 1
0 <= x37,17 <= 1
0 <= x37,18 <= 1
0 <= x38,8 <= 1
0 <= x38,9 <= 1
0 <= x38,10 <= 1
0 <= x38,11 <= 1
0 <= x38,12 <= 1
0 <= x38,13 <= 1
0 <= x38,14 <= 1
0 <= x38,15 <= 1
0 <= x38,16 <= 1
0 <= x38,17 <= 1
0 <= x38,18 <= 1
0 <= x39,6 <= 1
0 <= x39,7 <= 1
0 <= x39,8 <= 1
0 <= x39,9 <= 1
0 <= x39,10 <= 1
0 <= x39,11 <= 1
0 <= x39,12 <= 1
0 <= x39,13 <= 1
0 <= x39,14 <= 1
0 <= x39,15 <= 1
0 <= x39,16 <= 1
0 <= x39,17 <= 1
0 <= x39,18 <= 1
0 <= x40,6 <= 1
0 <= x40,7 <= 1
0 <= x40,8 <= 1
0 <= x40,9 <= 1
0 <= x40,10 <= 1
0 <= x40,11 <= 1
0 <= x40,12 <= 1
0 <= x40,13 <= 1
0 <= x40,14 <= 1
0 <= x40,15 <= 1
0 <= x40,16 <= 1
0 <= x40,17 <= 1
0 <= x40,18 <= 1
0 <= x41,5 <= 1
0 <= x41,6 <= 1
0 <= x41,7 <= 1
0 <= x41,8 <= 1
0 <= x41,9 <= 1
0 <= x41,10 <= 1
0 <= x41,11 <= 1
0 <= x41,12 <= 1
0 <= x41,13 <= 1
0 <= x41,14 <= 1
0 <= x41,15 <= 1
0 <= x41,16 <= 1
0 <= x41,17 <= 1
0 <= x41,18 <= 1
0 <= x42,5 <= 1
0 <= x42,6 <= 1
0 <= x42,7 <= 1
0 <= x42,8 <= 1
0 <= x42,9 <= 1
0 <= x42,10 <= 1
0 <= x42,11 <= 1
0 <= x42,12 <= 1
0 <= x42,13 <= 1
0 <= x42,14 <= 1
0 <= x42,15 <= 1
0 <= x42,16 <= 1
0 <= x42,17 <= 1
0 <= x42,18 <= 1
0 <= x43,1 <= 1
0 <= x43,2 <= 1
0 <= x43,3 <= 1
0 <= x43,4 <= 1
0 <= x43,5 <= 1
0 <= x43,6 <= 1
0 <= x43,7 <= 1
M1 >= 1
M2 >= 1
Generals
x0,10
x0,11
x0,12
x0,13
x0,14
x0,15
x0,16
x1,10
x1,11
x1,12
x1,13
x1,14
x1,15
x1,16
x2,9
x2,10
x2,11
x2,12
x2,13
x2,14
x2,15
x2,16
x3,8
x3,9
x3,10
x3,11
x3,12
x3,13
x3,14
x3,15
x3,16
x4,8
x4,9
x4,10
x4,11
x4,12
x4,13
x4,14
x4,15
x4,16
x5,8
x5,9
x5,10
x5,11
x5,12
x5,13
x5,14
x5,15
x5,16
x6,6
x6,7
x6,8
x6,9
x6,10
x6,11
x6,12
x6,13
x6,14
x6,15
x6,16
x7,6
x7,7
x7,8
x7,9
x7,10
x7,11
x7,12
x7,13
x7,14
x7,15
x7,16
x8,6
x8,7
x8,8
x8,9
x8,10
x8,11
x8,12
x8,13
x8,14
x8,15
x8,16
x9,4
x9,5
x9,6
x9,7
x9,8
x9,9
x9,10
x9,11
x9,12
x9,13
x9,14
x9,15
x9,16
x10,3
x10,4
x10,5
x10,6
x10,7
x10,8
x10,9
x10,10
x10,11
x10,12
x10,13
x10,14
x10,15
x10,16
x11,9
x11,10
x11,11
x11,12
x11,13
x11,14
x11,15
x12,8
x12,9
x12,10
x12,11
x12,12
x12,13
x12,14
x13,7
x13,8
x13,9
x13,10
x13,11
x13,12
x13,13
x13,14
x13,15
x14,7
x14,8
x14,9
x14,10
x14,11
x14,12
x14,13
x15,6
x15,7
x15,8
x15,9
x15,10
x15,11
x15,12
x16,5
x16,6
x16,7
x16,8
x16,9
x16,10
x16,11
x17,5
x17,6
x17,7
x17,8
x17,9
x17,10
x17,11
x17,12
x17,13
x17,14
x17,15
x18,4
x18,5
x18,6
x18,7
x18,8
x18,9
x18,10
x19,3
x19,4
x19,5
x19,6
x19,7
x19,8
x19,9
x20,2
x20,3
x20,4
x20,5
x20,6
x20,7
x20,8
x21,12
x21,13
x21,14
x21,15
x21,16
x21,17
x21,18
x22,12
x22,13
x22,14
x22,15
x22,16
x22,17
x22,18
x23,12
x23,13
x23,14
x23,15
x23,16
x23,17
x23,18
x24,12
x24,13
x24,14
x24,15
x24,16
x24,17
x24,18
x25,11
x25,12
x25,13
x25,14
x25,15
x25,16
x25,17
x25,18
x26,11
x26,12
x26,13
x26,14
x26,15
x26,16
x26,17
x26,18
x27,10
x27,11
x27,12
x27,13
x27,14
x27,15
x27,16
x27,17
x27,18
x28,10
x28,11
x28,12
x28,13
x28,14
x28,15
x28,16
x28,17
x28,18
x29,10
x29,11
x29,12
x29,13
x29,14
x29,15
x29,16
x29,17
x29,18
x30,10
x30,11
x30,12
x30,13
x30,14
x30,15
x30,16
x30,17
x30,18
x31,10
x31,11
x31,12
x31,13
x31,14
x31,15
x31,16
x31,17
x31,18
x32,10
x32,11
x32,12
x32,13
x32,14
x32,15
x32,16
x32,17
x32,18
x33,8
x33,9
x33,10
x33,11
x33,12
x33,13
x33,14
x33,15
x33,16
x33,17
x33,18
x34,8
x34,9
x34,10
x34,11
x34,12
x34,13
x34,14
x34,15
x34,16
x34,17
x34,18
x35,8
x35,9
x35,10
x35,11
x35,12
x35,13
x35,14
x35,15
x35,16
x35,17
x35,18
x36,8
x36,9
x36,10
x36,11
x36,12
x36,13
x36,14
x36,15
x36,16
x36,17
x36,18
x37,8
x37,9
x37,10
x37,11
x37,12
x37,13
x37,14
x37,15
x37,16
x37,17
x37,18
x38,8
x38,9
x38,10
x38,11
x38,12
x38,13
x38,14
x38,15
x38,16
x38,17
x38,18
x39,6
x39,7
x39,8
x39,9
x39,10
x39,11
x39,12
x39,13
x39,14
x39,15
x39,16
x39,17
x39,18
x40,6
x40,7
x40,8
x40,9
x40,10
x40,11
x40,12
x40,13
x40,14
x40,15
x40,16
x40,17
x40,18
x41,5
x41,6
x41,7
x41,8
x41,9
x41,10
x41,11
x41,12
x41,13
x41,14
x41,15
x41,16
x41,17
x41,18
x42,5
x42,6
x42,7
x42,8
x42,9
x42,10
x42,11
x42,12
x42,13
x42,14
x42,15
x42,16
x42,17
x42,18
x43,1
x43,2
x43,3
x43,4
x43,5
x43,6
x43,7
M1
M2
End
